NAME: rat99.opt.tour
COMMENT: 
TYPE: TOUR
DIMENSION: 99
TOUR_SECTION
11
2
3
12
13
22
21
20
19
28
37
29
30
31
32
41
40
39
48
38
47
46
55
56
57
58
59
60
61
62
63
72
81
80
71
70
69
78
77
68
67
66
65
64
74
75
76
85
84
86
87
88
79
89
90
99
98
97
96
95
94
93
92
91
83
82
73
49
50
51
52
53
54
45
44
34
43
42
33
35
36
27
26
25
24
23
15
16
17
18
9
8
7
6
5
14
4
1
10
-1
EOF